InboundTrucks  = 60;
OutboundTrucks = 30;
ReleaseTime    = [98,165,120,104,50,50,173,101,14,109,113,115,9,135,83,51,60,126,161,156,164,133,49,102,83,121,32,108,119,168,9,133,63,65,114,120,126,69,11,45,160,25,9,97,66,2,45,54,51,31,91,32,56,176,167,50,111,60,78,166];
UnloadTime     = [7,8,11,3,5,4,12,21,10,2,21,5,5,4,5,9,3,15,11,19,14,15,24,4,1,3,24,6,4,2,15,10,1,10,3,5,12,4,4,18,11,2,25,15,2,11,17,5,1,4,3,22,11,8,2,1,24,10,13,7];
LoadTime       = [14,17,11,14,3,16,17,1,18,4,9,5,13,1,8,13,3,2,4,10,15,9,2,4,1,3,16,6,11,4];
TransferTime   = [| 0,0,0,0,0,0,0,0,2,0,0,10,0,0,0,0,0,0,0,0,0,0,0,0,0,0,0,1,0,0 | 0,0,0,0,0,0,0,3,2,0,0,2,0,6,2,0,0,0,0,0,5,0,1,0,0,0,0,0,0,2 | 0,0,0,0,3,0,0,0,0,0,0,0,0,0,0,2,0,0,0,1,0,0,0,14,0,0,0,0,0,0 | 0,2,0,0,0,0,0,0,0,0,0,0,0,0,3,0,0,0,0,0,2,0,0,4,0,0,0,0,0,0 | 0,0,0,0,0,0,8,0,0,0,0,3,0,0,0,0,0,0,0,0,0,8,1,11,0,0,0,0,0,2 | 0,4,0,0,4,2,0,6,0,5,0,0,0,0,0,5,0,0,0,3,0,0,0,0,0,7,0,0,7,0 | 0,0,0,0,0,5,0,0,0,2,0,0,2,0,0,0,0,0,0,4,0,0,0,0,0,0,0,0,0,0 | 6,4,0,0,0,3,0,0,0,2,0,0,0,0,0,2,0,0,0,15,0,0,0,0,0,2,0,4,0,0 | 0,0,0,5,0,0,0,0,0,0,0,0,0,3,0,0,3,0,0,0,0,0,5,5,0,0,0,0,0,2 | 0,0,0,0,0,0,0,0,0,0,0,0,0,0,3,0,0,0,0,0,0,4,0,0,1,0,2,0,0,0 | 0,0,0,0,5,0,0,0,0,0,0,0,0,5,0,0,5,0,0,0,0,3,0,0,0,0,1,0,0,3 | 8,0,1,0,0,0,0,0,0,0,0,0,0,0,0,0,0,1,0,0,6,0,0,0,0,0,0,0,0,0 | 0,0,0,0,0,4,0,0,0,3,0,0,0,0,0,8,0,0,0,3,0,0,0,0,0,2,0,6,0,0 | 0,0,2,0,0,0,0,0,0,0,0,3,1,0,0,0,0,1,5,0,0,0,0,0,0,0,0,0,0,0 | 0,3,0,5,5,0,0,0,0,3,0,0,0,0,0,14,0,0,0,0,1,0,0,0,2,0,0,6,0,0 | 4,0,0,1,0,0,2,0,0,0,0,0,0,0,0,3,0,0,1,0,0,0,1,0,0,5,0,9,0,0 | 2,5,0,0,0,5,0,0,0,0,0,0,0,0,0,2,0,0,0,0,0,2,0,0,1,0,0,0,0,0 | 0,0,0,4,0,0,1,0,4,0,0,0,0,5,3,0,0,0,6,0,0,0,0,0,0,1,3,0,0,0 | 0,0,8,0,5,4,0,0,3,0,0,0,0,0,0,4,0,0,0,0,0,0,0,0,0,0,0,0,0,0 | 0,0,0,0,0,0,0,0,0,0,0,0,0,0,2,0,3,0,0,0,0,3,8,8,0,0,5,0,0,0 | 0,0,0,0,7,0,0,0,0,0,3,0,0,0,8,0,0,0,0,0,0,0,6,0,0,3,0,0,0,0 | 0,3,0,3,0,3,0,0,0,0,0,0,0,0,3,3,0,0,0,0,0,0,0,0,0,0,0,0,0,0 | 0,0,0,0,0,0,0,0,0,3,0,5,0,0,0,0,0,8,0,0,0,0,0,3,0,0,0,0,0,0 | 0,0,0,0,8,0,0,0,0,0,0,0,0,2,0,4,0,0,0,0,0,0,0,0,0,0,0,0,5,0 | 3,0,0,0,0,0,3,0,0,0,0,0,5,0,4,0,4,1,0,0,8,0,0,0,0,1,0,0,0,0 | 0,0,0,0,0,0,0,0,0,0,0,4,0,0,0,0,7,0,0,0,4,0,2,5,0,0,0,0,0,5 | 0,0,6,0,0,0,0,0,0,5,0,3,0,0,0,0,0,0,0,0,0,0,5,5,0,0,0,8,0,0 | 0,0,0,4,6,0,0,0,0,0,0,0,0,3,5,0,0,0,0,0,0,0,0,0,0,0,2,0,0,2 | 0,0,0,0,0,0,0,0,0,0,0,0,4,0,0,0,0,1,0,0,0,0,0,0,2,6,0,0,0,0 | 0,0,0,2,0,8,0,0,0,5,0,0,0,5,0,0,0,0,0,0,0,0,0,0,7,0,0,7,0,0 | 4,0,7,0,0,0,0,0,0,0,13,0,0,0,0,0,0,0,0,0,0,0,0,5,3,14,0,0,0,1 | 1,3,0,0,0,0,0,0,0,0,4,0,0,0,0,0,0,0,0,0,0,0,0,0,0,0,0,0,0,0 | 0,0,0,9,0,0,0,0,8,0,0,0,0,4,1,7,0,0,0,0,0,5,0,0,0,0,2,0,0,0 | 0,5,0,0,5,0,0,0,0,1,0,0,0,0,0,0,0,0,0,4,0,0,0,0,0,0,0,0,0,0 | 0,0,1,0,0,0,0,0,1,0,0,0,4,3,0,0,0,1,5,0,1,0,0,0,5,0,0,0,0,0 | 0,0,0,0,0,0,0,0,0,0,0,4,0,0,1,2,0,0,0,6,3,0,1,12,0,0,0,0,0,0 | 0,0,0,0,0,0,0,5,0,0,0,2,0,0,0,0,0,0,0,0,0,0,5,0,0,0,0,0,0,2 | 0,0,0,0,0,0,0,3,0,0,0,0,0,1,0,0,0,0,3,0,0,0,0,0,0,0,0,0,0,0 | 0,0,0,5,0,0,0,0,0,1,0,5,0,0,12,0,0,0,0,0,0,2,0,0,0,0,2,0,0,0 | 0,0,0,0,0,0,5,7,0,0,0,0,0,0,0,0,0,0,0,0,0,6,0,0,0,0,4,0,0,0 | 4,0,7,0,0,0,0,0,0,0,0,0,0,0,0,0,0,0,0,0,0,0,0,0,0,5,4,2,1,0 | 0,0,0,0,4,0,0,5,0,0,0,3,0,0,0,0,0,0,0,0,3,0,0,0,2,0,0,0,8,0 | 0,0,2,0,0,0,0,0,0,0,0,0,3,0,0,0,0,5,5,4,3,15,0,0,4,0,0,0,0,7 | 2,0,0,0,0,0,0,0,0,0,0,0,0,0,0,0,0,0,0,0,7,0,0,0,0,0,0,0,0,0 | 0,1,0,0,0,4,0,0,0,0,0,0,0,0,0,0,0,0,0,3,0,0,0,0,0,0,0,0,0,0 | 3,0,0,4,0,0,3,0,0,0,0,0,0,0,0,0,0,0,0,13,0,0,0,0,0,0,0,5,0,0 | 3,0,0,0,0,0,0,0,0,4,0,5,0,0,0,0,8,0,0,0,0,0,0,0,0,0,0,1,0,0 | 0,0,0,0,2,1,0,5,0,5,0,3,0,0,0,0,0,0,0,5,0,0,0,0,6,0,0,3,0,2 | 0,0,0,0,0,2,0,0,0,4,0,4,1,0,0,0,0,0,0,0,5,0,2,0,0,6,0,0,0,1 | 0,4,0,5,0,0,0,0,0,0,0,0,0,5,4,0,0,0,0,0,0,1,0,0,0,6,3,0,0,0 | 0,0,0,4,0,0,4,0,6,0,0,0,0,0,7,0,8,0,0,0,0,0,0,8,0,0,0,0,0,0 | 0,0,0,3,7,0,0,0,0,0,4,0,8,0,0,0,4,0,0,0,0,0,0,0,0,0,1,0,0,0 | 0,0,0,0,0,0,0,0,0,0,0,0,0,0,0,0,0,1,0,0,3,0,0,1,0,0,0,0,0,0 | 0,0,0,0,0,2,0,0,0,0,0,0,2,2,0,0,0,0,0,0,0,0,0,0,0,3,0,0,0,4 | 5,0,4,0,0,0,0,0,0,0,0,0,0,0,0,0,0,4,0,0,0,0,0,0,0,0,0,0,0,0 | 0,0,0,0,0,0,0,0,0,0,0,0,0,0,0,8,0,0,3,0,0,0,3,0,4,0,6,0,0,0 | 0,2,0,0,8,0,0,0,4,4,0,0,2,0,0,0,0,0,1,0,0,0,2,0,1,0,0,0,0,0 | 0,0,0,0,1,0,4,0,0,4,0,4,4,0,0,0,0,0,3,0,0,0,0,0,0,0,7,0,2,0 | 0,2,0,0,0,0,0,2,0,0,2,0,0,0,0,0,6,0,0,0,1,0,2,0,0,0,0,0,0,0 | 0,0,0,0,0,0,0,0,0,0,4,0,0,1,0,0,0,0,0,0,0,0,0,0,0,1,0,4,0,0 |];
